(set-logic QF_UF)
(declare-fun A0 () Bool)
(declare-fun A1 () Bool)
(declare-fun A2 () Bool)
(declare-fun A3 () Bool)
(declare-fun A4 () Bool)
(declare-fun A5 () Bool)
(declare-fun A6 () Bool)
(declare-fun A7 () Bool)
(declare-fun A8 () Bool)
(declare-fun A10 () Bool)
(declare-fun A11 () Bool)
(declare-fun A12 () Bool)
(declare-fun A13 () Bool)
(declare-fun A14 () Bool)
(declare-fun A15 () Bool)
(declare-fun A16 () Bool)
(declare-fun A17 () Bool)
(declare-fun A19 () Bool)
(declare-fun A20 () Bool)
(declare-fun A21 () Bool)
(declare-fun A22 () Bool)
(declare-fun A23 () Bool)
(declare-fun A24 () Bool)
(assert (let ((.def_0 (not A13))) (let ((.def_1 (or .def_0 A3))) (let ((.def_2 (not .def_1))) (let ((.def_3 (not A8))) (let ((.def_4 (not A1))) (let ((.def_5 (and .def_4 .def_3))) (let ((.def_6 (or .def_5 .def_2))) (let ((.def_7 (not .def_6))) (let ((.def_8 (not A21))) (let ((.def_9 (and A22 .def_8))) (let ((.def_10 (and A11 .def_4))) (let ((.def_11 (or .def_10 .def_9))) (let ((.def_12 (= .def_11 .def_7))) (let ((.def_13 (not .def_12))) (let ((.def_14 (and .def_4 A16))) (let ((.def_15 (not .def_14))) (let ((.def_16 (not A17))) (let ((.def_17 (not A14))) (let ((.def_18 (and .def_17 .def_16))) (let ((.def_19 (not .def_18))) (let ((.def_20 (and .def_19 .def_15))) (let ((.def_21 (not .def_20))) (let ((.def_22 (not A10))) (let ((.def_23 (or .def_4 .def_22))) (let ((.def_24 (not .def_23))) (let ((.def_25 (not A3))) (let ((.def_26 (or .def_8 .def_25))) (let ((.def_27 (or .def_26 .def_24))) (let ((.def_28 (not .def_27))) (let ((.def_29 (or .def_28 .def_21))) (let ((.def_30 (and .def_29 .def_13))) (let ((.def_31 (not A20))) (let ((.def_32 (or .def_31 A6))) (let ((.def_33 (or .def_25 A19))) (let ((.def_34 (not .def_33))) (let ((.def_35 (and .def_34 .def_32))) (let ((.def_36 (not A24))) (let ((.def_37 (not A5))) (let ((.def_38 (and .def_37 .def_36))) (let ((.def_39 (not .def_38))) (let ((.def_40 (or .def_4 A0))) (let ((.def_41 (not .def_40))) (let ((.def_42 (or .def_41 .def_39))) (let ((.def_43 (not .def_42))) (let ((.def_44 (or .def_43 .def_35))) (let ((.def_45 (not .def_44))) (let ((.def_46 (and A8 A23))) (let ((.def_47 (not A23))) (let ((.def_48 (and A0 .def_47))) (let ((.def_49 (or .def_48 .def_46))) (let ((.def_50 (not .def_49))) (let ((.def_51 (= A17 .def_22))) (let ((.def_52 (and A4 A8))) (let ((.def_53 (and .def_52 .def_51))) (let ((.def_54 (and .def_53 .def_50))) (let ((.def_55 (not .def_54))) (let ((.def_56 (or .def_55 .def_45))) (let ((.def_57 (not .def_56))) (let ((.def_58 (or .def_57 .def_30))) (let ((.def_59 (not .def_58))) (let ((.def_60 (not A16))) (let ((.def_61 (or A4 .def_60))) (let ((.def_62 (not A11))) (let ((.def_63 (and .def_62 A23))) (let ((.def_64 (= .def_63 .def_61))) (let ((.def_65 (or A12 .def_16))) (let ((.def_66 (not A2))) (let ((.def_67 (and .def_66 .def_47))) (let ((.def_68 (or .def_67 .def_65))) (let ((.def_69 (or .def_68 .def_64))) (let ((.def_70 (or A3 .def_36))) (let ((.def_71 (or .def_4 A20))) (let ((.def_72 (and .def_71 .def_70))) (let ((.def_73 (not .def_72))) (let ((.def_74 (or .def_47 .def_22))) (let ((.def_75 (and A13 A8))) (let ((.def_76 (or .def_75 .def_74))) (let ((.def_77 (not .def_76))) (let ((.def_78 (= .def_77 .def_73))) (let ((.def_79 (and .def_78 .def_69))) (let ((.def_80 (and A23 .def_0))) (let ((.def_81 (or A16 .def_66))) (let ((.def_82 (not .def_81))) (let ((.def_83 (and .def_82 .def_80))) (let ((.def_84 (and A15 A19))) (let ((.def_85 (not .def_84))) (let ((.def_86 (not A22))) (let ((.def_87 (not A4))) (let ((.def_88 (and .def_87 .def_86))) (let ((.def_89 (not .def_88))) (let ((.def_90 (and .def_89 .def_85))) (let ((.def_91 (or .def_90 .def_83))) (let ((.def_92 (not .def_91))) (let ((.def_93 (and .def_25 A5))) (let ((.def_94 (not A7))) (let ((.def_95 (not A12))) (let ((.def_96 (or .def_95 .def_94))) (let ((.def_97 (or .def_96 .def_93))) (let ((.def_98 (not A19))) (let ((.def_99 (= .def_98 .def_25))) (let ((.def_100 (not .def_99))) (let ((.def_101 (and .def_3 A14))) (let ((.def_102 (and .def_101 .def_100))) (let ((.def_103 (not .def_102))) (let ((.def_104 (and .def_103 .def_97))) (let ((.def_105 (or .def_104 .def_92))) (let ((.def_106 (not .def_105))) (let ((.def_107 (or .def_106 .def_79))) (let ((.def_108 (not .def_107))) (let ((.def_109 (and .def_108 .def_59))) .def_109)))))))))))))))))))))))))))))))))))))))))))))))))))))))))))))))))))))))))))))))))))))))))))))))))))))))))))))))
(check-sat)
